01-01-2018
26-01-2018
14-02-2018
19-02-2018
20-02-2018
21-02-2018
22-02-2018
23-02-2018
26-02-2018
27-02-2018
28-02-2018
01-03-2018
02-03-2018
29-03-2018
30-03-2018
23-04-2018
24-04-2018
25-04-2018
26-04-2018
27-04-2018
30-04-2018
01-05-2018
02-05-2018
03-05-2018
04-05-2018